Route #1: 75 4 45 27 52 34 46 8 35 7
Route #2: 67 26 58 10 31 55 25 9 39 72 12
Route #3: 38 65 66 11 53 14 59 19 54
Route #4: 13 57 15 5 37 20 70 60 71 69 36 47 21 48 29
Route #5: 1 43 42 64 41 56 23 49 24 18 50 32
Route #6: 40 44 3 16 63 33 73 62 22 61 28 74
Route #7: 68 30 2 6 51 17
Cost 739